networks/zoo_136_912/zoo_136_912-lower.txt
Number of groups: 56
Flow 1: {1 4 0} {4 3 0} {3 71 0} 
Flow 2: {4 72 0} 
Flow 3: {1 12 0} {12 52 0} {52 19 0} {19 87 0} 
Flow 4: {12 51 0} {51 119 0} 
Flow 5: {52 53 0} {53 121 0} 
Flow 6: {3 59 0} {59 127 0} 
Flow 7: {1 63 0} {63 62 0} {62 130 0} 
Flow 8: {63 68 0} {68 136 0} 
Flow 9: {2 7 0} {7 3 0} Flow 10: {3 4 0} Flow 11: {7 6 0} {6 74 0} 
Flow 12: {7 75 0} 
Flow 13: {2 8 0} {8 76 0} 
Flow 14: {4 9 0} {9 77 0} 
Flow 15: {7 11 0} {11 79 0} 
Flow 16: {11 12 0} {12 80 0} 
Flow 17: {7 59 0} {59 61 0} {61 63 0} {63 15 0} {15 83 0} 
Flow 18: {63 26 0} {26 17 0} {17 85 0} 
Flow 19: {17 18 0} {18 86 0} 
Flow 20: {7 19 0} Flow 21: {2 34 0} {34 53 0} {53 23 0} {23 91 0} 
Flow 22: {53 24 0} {24 92 0} 
Flow 23: {4 28 0} {28 96 0} 
Flow 24: {53 29 0} {29 97 0} 
Flow 25: {68 31 0} {31 99 0} 
Flow 26: {68 32 0} {32 100 0} 
Flow 27: {7 52 0} {52 33 0} {33 101 0} 
Flow 28: {7 36 0} {36 104 0} 
Flow 29: {7 51 0} {51 37 0} {37 105 0} 
Flow 30: {62 41 0} {41 109 0} 
Flow 30: {61 62 0} Flow 31: {41 42 0} {42 110 0} 
Flow 32: {62 44 0} {44 112 0} 
Flow 33: {51 50 0} {50 118 0} 
Flow 35: {52 120 0} 
Flow 37: {52 55 0} {55 123 0} 
Flow 38: {61 57 0} {57 125 0} 
Flow 39: {53 58 0} {58 126 0} 
Flow 41: {61 129 0} 
Flow 43: {63 131 0} 
Flow 44: {4 65 0} {65 133 0} 
Flow 46: {7 2 0} {2 70 0} 
Flow 46: {3 7 0} Flow 52: {4 1 0} Flow 57: {19 53 0} Flow 78: {6 5 0} {5 73 0} 
Flow 83: {4 30 0} {30 10 0} {10 78 0} 
Flow 84: {12 11 0} Flow 86: {62 13 0} {13 81 0} 
Flow 88: {63 16 0} {16 84 0} 
Flow 92: {52 20 0} {20 88 0} 
Flow 100: {2 35 0} {35 103 0} 
Flow 103: {18 40 0} {40 108 0} 
Flow 107: {62 45 0} {45 113 0} 
Flow 108: {62 46 0} {46 114 0} 
Flow 109: {52 48 0} {48 116 0} 
Flow 115: {12 56 0} {56 124 0} 
Flow 116: {63 61 0} Flow 123: {61 67 0} {67 135 0} 
Flow 125: {5 8 0} {8 2 0} Flow 126: {5 6 0} {6 7 0} Flow 170: {62 14 0} {14 82 0} 
Flow 177: {52 22 0} {22 90 0} 
Flow 182: {30 98 0} 
Flow 186: {34 102 0} 
Flow 190: {42 39 0} {39 40 0} Flow 197: {51 49 0} {49 117 0} 
Flow 207: {61 60 0} {60 128 0} 
Flow 224: {10 30 0} {30 4 0} Flow 225: {11 7 0} Flow 232: {12 1 0} Flow 297: {13 62 0} {62 61 0} {61 59 0} {59 7 0} Flow 298: {59 3 0} Flow 299: {62 63 0} {63 1 0} Flow 308: {18 17 0} {17 26 0} {26 63 0} Flow 319: {19 7 0} Flow 325: {19 52 0} {52 12 0} Flow 339: {20 52 0} {52 7 0} Flow 347: {21 52 0} Flow 358: {22 52 0} Flow 370: {23 53 0} {53 34 0} {34 2 0} Flow 371: {53 19 0} Flow 374: {53 52 0} Flow 381: {24 53 0} Flow 401: {27 9 0} {9 4 0} Flow 405: {28 4 0} Flow 416: {29 53 0} Flow 445: {31 68 0} {68 63 0} Flow 450: {33 52 0} Flow 454: {35 2 0} Flow 462: {37 51 0} {51 7 0} Flow 468: {39 42 0} {42 41 0} {41 62 0} Flow 476: {40 18 0} Flow 505: {40 39 0} Flow 557: {44 62 0} Flow 568: {46 62 0} Flow 569: {47 52 0} Flow 580: {49 51 0} Flow 586: {50 51 0} Flow 593: {51 12 0} Flow 707: {54 52 0} Flow 715: {55 52 0} Flow 726: {56 12 0} Flow 734: {57 61 0} Flow 776: {60 61 0} Flow 855: {64 61 0} Flow 856: {65 4 0} Flow 862: {67 61 0} Time taken running everything: 0 seconds
