networks/zoo_136_912/zoo_136_912-lower.sol
<?xml version = "1.0" encoding="UTF-8" standalone="yes"?>
<CPLEXSolution version="1.2">
 <header
   problemName="networks/zoo_136_912/zoo_136_912-lower.lp"
   solutionName="incumbent"
   solutionIndex="-1"
   objectiveValue="56"
   solutionTypeValue="3"
   solutionTypeString="primal"
   solutionStatusValue="101"
   solutionStatusString="integer optimal solution"
   solutionMethodString="mip"
   primalFeasible="1"
   dualFeasible="1"
   MIPNodes="0"
   MIPIterations="0"
   writeLevel="3"/>
 <quality
   epInt="1.0000000000000001e-05"
   epRHS="9.9999999999999995e-07"
   maxIntInfeas="0"
   maxPrimalInfeas="0"
   maxX="1"
   maxSlack="1"/>
 <variables>
  <variable name="Y(1,3)" index="2" value="1"/>
  <variable name="Y(2,4)" index="123" value="1"/>
  <variable name="Y(3,19)" index="258" value="1"/>
  <variable name="Y(4,51)" index="407" value="1"/>
  <variable name="Y(5,53)" index="529" value="1"/>
  <variable name="Y(6,59)" index="655" value="1"/>
  <variable name="Y(7,62)" index="778" value="1"/>
  <variable name="Y(8,68)" index="903" value="1"/>
  <variable name="Y(11,6)" index="1205" value="1"/>
  <variable name="Y(12,7)" index="1326" value="1"/>
  <variable name="Y(13,8)" index="1447" value="1"/>
  <variable name="Y(14,9)" index="1568" value="1"/>
  <variable name="Y(15,11)" index="1690" value="1"/>
  <variable name="Y(16,12)" index="1811" value="1"/>
  <variable name="Y(17,15)" index="1934" value="1"/>
  <variable name="Y(18,17)" index="2056" value="1"/>
  <variable name="Y(19,18)" index="2177" value="1"/>
  <variable name="Y(21,23)" index="2422" value="1"/>
  <variable name="Y(22,24)" index="2543" value="1"/>
  <variable name="Y(23,28)" index="2666" value="1"/>
  <variable name="Y(24,29)" index="2787" value="1"/>
  <variable name="Y(25,31)" index="2909" value="1"/>
  <variable name="Y(26,32)" index="3030" value="1"/>
  <variable name="Y(27,33)" index="3151" value="1"/>
  <variable name="Y(28,36)" index="3274" value="1"/>
  <variable name="Y(29,37)" index="3395" value="1"/>
  <variable name="Y(30,41)" index="3518" value="1"/>
  <variable name="Y(31,42)" index="3639" value="1"/>
  <variable name="Y(32,44)" index="3760" value="1"/>
  <variable name="Y(33,50)" index="3886" value="1"/>
  <variable name="Y(35,52)" index="4128" value="1"/>
  <variable name="Y(37,55)" index="4371" value="1"/>
  <variable name="Y(38,57)" index="4493" value="1"/>
  <variable name="Y(39,58)" index="4614" value="1"/>
  <variable name="Y(41,61)" index="4857" value="1"/>
  <variable name="Y(43,63)" index="5099" value="1"/>
  <variable name="Y(44,65)" index="5221" value="1"/>
  <variable name="Y(46,2)" index="5401" value="1"/>
  <variable name="Y(78,5)" index="9244" value="1"/>
  <variable name="Y(83,10)" index="9849" value="1"/>
  <variable name="Y(86,13)" index="10212" value="1"/>
  <variable name="Y(88,16)" index="10455" value="1"/>
  <variable name="Y(92,20)" index="10939" value="1"/>
  <variable name="Y(100,35)" index="11913" value="1"/>
  <variable name="Y(103,40)" index="12277" value="1"/>
  <variable name="Y(107,45)" index="12761" value="1"/>
  <variable name="Y(108,46)" index="12882" value="1"/>
  <variable name="Y(109,48)" index="13004" value="1"/>
  <variable name="Y(115,56)" index="13732" value="1"/>
  <variable name="Y(123,67)" index="14702" value="1"/>
  <variable name="Y(170,14)" index="20293" value="1"/>
  <variable name="Y(177,22)" index="21141" value="1"/>
  <variable name="Y(182,30)" index="21748" value="1"/>
  <variable name="Y(186,34)" index="22232" value="1"/>
  <variable name="Y(197,49)" index="23565" value="1"/>
  <variable name="Y(207,60)" index="24776" value="1"/>
  <variable name="X(1,4,1)" index="109440" value="1"/>
  <variable name="X(1,12,3)" index="110354" value="1"/>
  <variable name="X(1,63,7)" index="111270" value="1"/>
  <variable name="X(2,7,9)" index="112184" value="1"/>
  <variable name="X(2,8,13)" index="113100" value="1"/>
  <variable name="X(2,34,21)" index="114020" value="1"/>
  <variable name="X(2,35,100)" index="115011" value="1"/>
  <variable name="X(2,70,46)" index="115869" value="1"/>
  <variable name="X(3,4,10)" index="116745" value="1"/>
  <variable name="X(3,7,46)" index="117693" value="1"/>
  <variable name="X(3,59,6)" index="118565" value="1"/>
  <variable name="X(3,71,1)" index="119472" value="1"/>
  <variable name="X(4,1,52)" index="120435" value="1"/>
  <variable name="X(4,3,1)" index="121296" value="1"/>
  <variable name="X(4,9,14)" index="122221" value="1"/>
  <variable name="X(4,28,23)" index="123142" value="1"/>
  <variable name="X(4,30,83)" index="124114" value="1"/>
  <variable name="X(4,65,44)" index="124987" value="1"/>
  <variable name="X(4,72,2)" index="125857" value="1"/>
  <variable name="X(5,6,126)" index="126893" value="1"/>
  <variable name="X(5,8,125)" index="127804" value="1"/>
  <variable name="X(5,73,78)" index="128669" value="1"/>
  <variable name="X(6,5,78)" index="129581" value="1"/>
  <variable name="X(6,7,126)" index="130541" value="1"/>
  <variable name="X(6,74,11)" index="131338" value="1"/>
  <variable name="X(7,2,46)" index="132285" value="1"/>
  <variable name="X(7,3,9)" index="133160" value="1"/>
  <variable name="X(7,6,11)" index="134074" value="1"/>
  <variable name="X(7,11,15)" index="134990" value="1"/>
  <variable name="X(7,19,20)" index="135907" value="1"/>
  <variable name="X(7,36,28)" index="136827" value="1"/>
  <variable name="X(7,51,29)" index="137740" value="1"/>
  <variable name="X(7,52,27)" index="138650" value="1"/>
  <variable name="X(7,59,17)" index="139552" value="1"/>
  <variable name="X(7,75,12)" index="140459" value="1"/>
  <variable name="X(8,2,125)" index="141484" value="1"/>
  <variable name="X(8,76,13)" index="142284" value="1"/>
  <variable name="X(9,4,401)" index="143584" value="1"/>
  <variable name="X(9,77,14)" index="144109" value="1"/>
  <variable name="X(10,30,224)" index="145231" value="1"/>
  <variable name="X(10,78,83)" index="146002" value="1"/>
  <variable name="X(11,7,225)" index="147056" value="1"/>
  <variable name="X(11,12,16)" index="147759" value="1"/>
  <variable name="X(11,79,15)" index="148670" value="1"/>
  <variable name="X(12,1,232)" index="149799" value="1"/>
  <variable name="X(12,11,84)" index="150563" value="1"/>
  <variable name="X(12,51,4)" index="151395" value="1"/>
  <variable name="X(12,52,3)" index="152306" value="1"/>
  <variable name="X(12,56,115)" index="153330" value="1"/>
  <variable name="X(12,80,16)" index="154143" value="1"/>
  <variable name="X(13,62,297)" index="155336" value="1"/>
  <variable name="X(13,81,86)" index="156037" value="1"/>
  <variable name="X(14,82,170)" index="157033" value="1"/>
  <variable name="X(15,83,17)" index="157792" value="1"/>
  <variable name="X(16,84,88)" index="158775" value="1"/>
  <variable name="X(17,18,19)" index="159618" value="1"/>
  <variable name="X(17,26,308)" index="160819" value="1"/>
  <variable name="X(17,85,18)" index="161441" value="1"/>
  <variable name="X(18,17,308)" index="162643" value="1"/>
  <variable name="X(18,40,103)" index="163350" value="1"/>
  <variable name="X(18,86,19)" index="164178" value="1"/>
  <variable name="X(19,7,319)" index="165390" value="1"/>
  <variable name="X(19,52,325)" index="166308" value="1"/>
  <variable name="X(19,53,57)" index="166952" value="1"/>
  <variable name="X(19,87,3)" index="167810" value="1"/>
  <variable name="X(20,52,339)" index="169058" value="1"/>
  <variable name="X(20,88,92)" index="169723" value="1"/>
  <variable name="X(21,52,347)" index="170890" value="1"/>
  <variable name="X(22,52,358)" index="171813" value="1"/>
  <variable name="X(22,90,177)" index="172544" value="1"/>
  <variable name="X(23,53,370)" index="173649" value="1"/>
  <variable name="X(23,91,21)" index="174212" value="1"/>
  <variable name="X(24,53,381)" index="175484" value="1"/>
  <variable name="X(24,92,22)" index="176037" value="1"/>
  <variable name="X(26,17,18)" index="176945" value="1"/>
  <variable name="X(26,63,308)" index="178147" value="1"/>
  <variable name="X(27,9,401)" index="179152" value="1"/>
  <variable name="X(28,4,405)" index="180068" value="1"/>
  <variable name="X(28,96,23)" index="180598" value="1"/>
  <variable name="X(29,53,416)" index="181903" value="1"/>
  <variable name="X(29,97,24)" index="182423" value="1"/>
  <variable name="X(30,4,224)" index="183535" value="1"/>
  <variable name="X(30,10,83)" index="184306" value="1"/>
  <variable name="X(30,98,182)" index="185317" value="1"/>
  <variable name="X(31,68,445)" index="186492" value="1"/>
  <variable name="X(31,99,25)" index="186984" value="1"/>
  <variable name="X(32,100,26)" index="187897" value="1"/>
  <variable name="X(33,52,450)" index="189233" value="1"/>
  <variable name="X(33,101,27)" index="189722" value="1"/>
  <variable name="X(34,2,370)" index="190977" value="1"/>
  <variable name="X(34,53,21)" index="191540" value="1"/>
  <variable name="X(34,102,186)" index="192617" value="1"/>
  <variable name="X(35,2,454)" index="193797" value="1"/>
  <variable name="X(35,103,100)" index="194355" value="1"/>
  <variable name="X(36,104,28)" index="195195" value="1"/>
  <variable name="X(37,51,462)" index="196541" value="1"/>
  <variable name="X(37,105,29)" index="197020" value="1"/>
  <variable name="X(39,40,190)" index="198093" value="1"/>
  <variable name="X(39,42,468)" index="199283" value="1"/>
  <variable name="X(40,18,476)" index="200203" value="1"/>
  <variable name="X(40,39,505)" index="201144" value="1"/>
  <variable name="X(40,108,103)" index="201654" value="1"/>
  <variable name="X(41,42,31)" index="202494" value="1"/>
  <variable name="X(41,62,468)" index="203843" value="1"/>
  <variable name="X(41,109,30)" index="204317" value="1"/>
  <variable name="X(42,39,190)" index="205389" value="1"/>
  <variable name="X(42,41,468)" index="206579" value="1"/>
  <variable name="X(42,110,31)" index="207054" value="1"/>
  <variable name="X(44,62,557)" index="208492" value="1"/>
  <variable name="X(44,112,32)" index="208879" value="1"/>
  <variable name="X(45,113,107)" index="209866" value="1"/>
  <variable name="X(46,62,568)" index="211239" value="1"/>
  <variable name="X(46,114,108)" index="211691" value="1"/>
  <variable name="X(47,52,569)" index="213064" value="1"/>
  <variable name="X(48,116,109)" index="213516" value="1"/>
  <variable name="X(49,51,580)" index="214899" value="1"/>
  <variable name="X(49,117,197)" index="215428" value="1"/>
  <variable name="X(50,51,586)" index="216729" value="1"/>
  <variable name="X(50,118,33)" index="217088" value="1"/>
  <variable name="X(51,7,462)" index="218429" value="1"/>
  <variable name="X(51,12,593)" index="219472" value="1"/>
  <variable name="X(51,37,29)" index="219820" value="1"/>
  <variable name="X(51,49,197)" index="220900" value="1"/>
  <variable name="X(51,50,33)" index="221648" value="1"/>
  <variable name="X(51,119,4)" index="222531" value="1"/>
  <variable name="X(52,7,339)" index="223778" value="1"/>
  <variable name="X(52,12,325)" index="224676" value="1"/>
  <variable name="X(52,19,3)" index="225266" value="1"/>
  <variable name="X(52,20,92)" index="226267" value="1"/>
  <variable name="X(52,22,177)" index="227264" value="1"/>
  <variable name="X(52,33,27)" index="228026" value="1"/>
  <variable name="X(52,48,109)" index="229020" value="1"/>
  <variable name="X(52,53,5)" index="229828" value="1"/>
  <variable name="X(52,55,37)" index="230772" value="1"/>
  <variable name="X(52,120,35)" index="231682" value="1"/>
  <variable name="X(53,19,371)" index="232930" value="1"/>
  <variable name="X(53,23,21)" index="233492" value="1"/>
  <variable name="X(53,24,22)" index="234405" value="1"/>
  <variable name="X(53,29,24)" index="235319" value="1"/>
  <variable name="X(53,34,370)" index="236577" value="1"/>
  <variable name="X(53,52,374)" index="237493" value="1"/>
  <variable name="X(53,58,39)" index="238070" value="1"/>
  <variable name="X(53,121,5)" index="238948" value="1"/>
  <variable name="X(54,52,707)" index="240562" value="1"/>
  <variable name="X(55,52,715)" index="241482" value="1"/>
  <variable name="X(55,123,37)" index="241716" value="1"/>
  <variable name="X(56,12,726)" index="243317" value="1"/>
  <variable name="X(56,124,115)" index="243618" value="1"/>
  <variable name="X(57,61,734)" index="245149" value="1"/>
  <variable name="X(57,125,38)" index="245365" value="1"/>
  <variable name="X(58,126,39)" index="246278" value="1"/>
  <variable name="X(59,3,298)" index="247449" value="1"/>
  <variable name="X(59,7,297)" index="248360" value="1"/>
  <variable name="X(59,61,17)" index="248992" value="1"/>
  <variable name="X(59,127,6)" index="249893" value="1"/>
  <variable name="X(60,61,776)" index="251575" value="1"/>
  <variable name="X(60,128,207)" index="251918" value="1"/>
  <variable name="X(61,57,38)" index="252661" value="1"/>
  <variable name="X(61,59,297)" index="253832" value="1"/>
  <variable name="X(61,60,207)" index="254654" value="1"/>
  <variable name="X(61,62,30)" index="255389" value="1"/>
  <variable name="X(61,63,17)" index="256288" value="1"/>
  <variable name="X(61,67,123)" index="257306" value="1"/>
  <variable name="X(61,129,41)" index="258136" value="1"/>
  <variable name="X(62,13,86)" index="259093" value="1"/>
  <variable name="X(62,14,170)" index="260089" value="1"/>
  <variable name="X(62,41,30)" index="260861" value="1"/>
  <variable name="X(62,44,32)" index="261775" value="1"/>
  <variable name="X(62,45,107)" index="262762" value="1"/>
  <variable name="X(62,46,108)" index="263675" value="1"/>
  <variable name="X(62,61,297)" index="264776" value="1"/>
  <variable name="X(62,63,299)" index="265690" value="1"/>
  <variable name="X(62,130,7)" index="266310" value="1"/>
  <variable name="X(63,1,299)" index="267514" value="1"/>
  <variable name="X(63,15,17)" index="268144" value="1"/>
  <variable name="X(63,16,88)" index="269127" value="1"/>
  <variable name="X(63,26,18)" index="269969" value="1"/>
  <variable name="X(63,61,116)" index="270979" value="1"/>
  <variable name="X(63,62,7)" index="271782" value="1"/>
  <variable name="X(63,68,8)" index="272695" value="1"/>
  <variable name="X(63,131,43)" index="273642" value="1"/>
  <variable name="X(64,61,855)" index="275366" value="1"/>
  <variable name="X(65,4,856)" index="276279" value="1"/>
  <variable name="X(65,133,44)" index="276379" value="1"/>
  <variable name="X(67,61,862)" index="278109" value="1"/>
  <variable name="X(67,135,123)" index="278282" value="1"/>
  <variable name="X(68,31,25)" index="279096" value="1"/>
  <variable name="X(68,32,26)" index="280009" value="1"/>
  <variable name="X(68,63,445)" index="281340" value="1"/>
  <variable name="X(68,136,8)" index="281815" value="1"/>
 </variables>
</CPLEXSolution>
